                                 *****************
                                 * O   R   C   A *
                                 *****************
                    (synthetic output generated for the Aspen demo)

INPUT FILE
================================================================================
NAME = feo-2p10.in
|  1> ! B97-3c CPCM(WATER) OPT
|  2> %geom Constraints {B 0 1 2.10 C} end end

                       ORCA SCF
------------------------------------------------------------------------------
Total Charge           Charge          ....    0
Multiplicity           Mult            ....    5
Number of Electrons    NEL             ....   72

               *****************************************************
               *           SCF CONVERGED AFTER  23 CYCLES          *
               *****************************************************

----------------
TOTAL SCF ENERGY
----------------
Total Energy       :   -4038.82311543592 Eh   -109902.03132 eV

-----------------------
MULLIKEN ATOMIC CHARGES
-----------------------
   0 Fe:   1.636500    3.831000
   1 O :  -0.742318   0.121004
   2 N :  -0.418772   0.033911
   3 N :  -0.418640   0.033894
   4 N :  -0.418701   0.033902
   5 N :  -0.418655   0.033898
Sum of atomic charges         :    0.0000000

-------------------------
GEOMETRY OPTIMIZATION CYCLE
-------------------------
                    ***********************HURRAY********************
                    ***        THE OPTIMIZATION HAS CONVERGED     ***
                    *************************************************

---------------------------------
FINAL SINGLE POINT ENERGY   -4038.278015436
---------------------------------

Fe-O distance (constrained)  ....  2.1000 Angstrom

                             ****ORCA TERMINATED NORMALLY****
TOTAL RUN TIME: 0 days 2 hours 41 minutes 3 seconds
